     Program PWSCF v.6.4.1 starts on  7Jul2020 at 12:37: 5

     Waiting for input...
     Reading input from standard input

     Current dimensions of program PWSCF are:
     Max number of different atomic species (ntypx) = 10
     Max number of k-points (npk) =  40000
     Max angular momentum in pseudopotentials (lmaxx) =  3

     IMPORTANT: XC functional enforced from input :
     Exchange-correlation      = PBE ( 1  4  3  4 0 0)
     Any further DFT definition will be discarded
     Please, verify this is what you really want

               file Si.pbe-n-kjpaw_psl.1.0.0.UPF: wavefunction(s)  3S 3P renormalized
               file O.pbe-n-kjpaw_psl.1.0.0.UPF: wavefunction(s)  2S 2P renormalized

     Subspace diagonalization in iterative solution of the eigenvalue problem:
     a serial algorithm will be used

     Message from routine setup:
     DEPRECATED: symmetry with ibrav=0, use correct ibrav instead

     bravais-lattice index     =            0
     lattice parameter (alat)  =       9.3952  a.u.
     unit-cell volume          =    1154.6673 (a.u.)^3
     number of atoms/cell      =           12
     number of atomic types    =            2
     number of electrons       =        64.00
     number of Kohn-Sham states=           32
     kinetic-energy cutoff     =      50.0000  Ry
     charge density cutoff     =     600.0000  Ry
     convergence threshold     =      1.0E-06
     mixing beta               =       0.7000
     number of iterations used =            8  plain     mixing
     Exchange-correlation      = PBE ( 1  4  3  4 0 0)

     celldm(1)=   9.395151  celldm(2)=   0.000000  celldm(3)=   0.000000
     celldm(4)=   0.000000  celldm(5)=   0.000000  celldm(6)=   0.000000

     crystal axes: (cart. coord. in units of alat)
               a(1) = (   1.000000   0.000000   0.000000 )
               a(2) = (   0.000000   1.000000   0.000000 )
               a(3) = (   0.000000   0.000000   1.392341 )

     reciprocal axes: (cart. coord. in units 2 pi/alat)
               b(1) = (  1.000000  0.000000  0.000000 )
               b(2) = (  0.000000  1.000000  0.000000 )
               b(3) = (  0.000000  0.000000  0.718215 )

     PseudoPot. # 1 for Si read from file:
     ./Si.pbe-n-kjpaw_psl.1.0.0.UPF
     MD5 check sum: c39c59da582df4a0d9f10159256ea34e
     Pseudo is Projector augmented-wave + core cor, Zval =  4.0
     Generated using "atomic" code by A. Dal Corso v.6.3
     Shape of augmentation charge: PSQ
     Using radial grid of 1141 points,  6 beta functions with:
                l(1) =   0
                l(2) =   0
                l(3) =   1
                l(4) =   1
                l(5) =   2
                l(6) =   2
     Q(r) pseudized with 0 coefficients

     PseudoPot. # 2 for O  read from file:
     ./O.pbe-n-kjpaw_psl.1.0.0.UPF
     MD5 check sum: e99d9cef9b487d1ca56f5b95ecd0fd7a
     Pseudo is Projector augmented-wave + core cor, Zval =  6.0
     Generated using "atomic" code by A. Dal Corso v.6.3
     Shape of augmentation charge: PSQ
     Using radial grid of 1095 points,  4 beta functions with:
                l(1) =   0
                l(2) =   0
                l(3) =   1
                l(4) =   1
     Q(r) pseudized with 0 coefficients

     atomic species   valence    mass     pseudopotential
        Si             4.00    28.08500     Si( 1.00)
        O              6.00    15.99900     O ( 1.00)

      8 Sym. Ops. (no inversion) found ( 6 have fractional translation)

   Cartesian axes

     site n.     atom                  positions (alat units)
         1           Si  tau(   1) = (   0.3002800   0.3002800   0.0000000  )
         2           Si  tau(   2) = (   0.6997200   0.6997200   0.6961703  )
         3           Si  tau(   3) = (   0.1997200   0.8002800   0.3480852  )
         4           Si  tau(   4) = (   0.8002800   0.1997200   1.0442555  )
         5           O   tau(   5) = (   0.2392000   0.1044000   0.2488113  )
         6           O   tau(   6) = (   0.7608000   0.8956000   0.9449816  )
         7           O   tau(   7) = (   0.8956000   0.7608000   0.4473591  )
         8           O   tau(   8) = (   0.2608000   0.6044000   0.0992739  )
         9           O   tau(   9) = (   0.7392000   0.3956000   0.7954442  )
        10           O   tau(  10) = (   0.1044000   0.2392000   1.1435294  )
        11           O   tau(  11) = (   0.3956000   0.7392000   0.5968964  )
        12           O   tau(  12) = (   0.6044000   0.2608000   1.2930668  )

     number of k points=     1
                       cart. coord. in units 2pi/alat
        k(    1) = (   0.2500000   0.2500000   0.1795538), wk =   2.0000000

     Initial potential from superposition of free atoms

     starting charge   63.99775, renormalised to   64.00000
     Starting wfcs are   48 randomized atomic wfcs
     Checking if some PAW data can be deallocated...

     Self-consistent Calculation

     iteration #  1     ecut=    50.00 Ry     beta= 0.70
     Davidson diagonalization with overlap
     ethr =  1.00E-02,  avg # of iterations =  4.0

     total energy              =    -519.87601822 Ry
     Harris-Foulkes estimate   =    -522.31960445 Ry
     estimated scf accuracy    <       3.42226195 Ry

[...]

     total energy              =    -521.52258115 Ry
     Harris-Foulkes estimate   =    -521.52259488 Ry
     estimated scf accuracy    <       0.00002353 Ry

     iteration # 29     ecut=    50.00 Ry     beta= 0.70
     Davidson diagonalization with overlap
     ethr =  3.68E-08,  avg # of iterations =  4.0

     End of self-consistent calculation

          k = 0.2500 0.2500 0.1796 (  6890 PWs)   bands (ev):

   -17.8200 -17.4629 -16.9123 -16.4471 -16.0284 -16.0141 -16.0072 -16.0008
    -7.3977  -6.5926  -5.4727  -4.8357  -4.0955  -3.9828  -3.8857  -3.7475
    -1.8174  -1.4819  -1.3988  -1.2717  -0.9252  -0.7976  -0.5911  -0.4466
    -0.2616  -0.0740   0.0666   0.3725   0.6028   0.8357   0.9016   1.1870

     highest occupied level (ev):     1.1870

!    total energy              =    -521.52258817 Ry
     Harris-Foulkes estimate   =    -521.52258850 Ry
     estimated scf accuracy    <       0.00000042 Ry

     total all-electron energy =     -3525.681170 Ry

     The total energy is the sum of the following terms:

     one-electron contribution =    -178.44779353 Ry
     hartree contribution      =     122.90522864 Ry
     xc contribution           =     -86.25880882 Ry
     ewald contribution        =    -160.84759135 Ry
     one-center paw contrib.   =    -218.87362312 Ry

     convergence has been achieved in  29 iterations

     Writing output data file qa.save/

     General routines

     Parallel routines

   This run was terminated on:  12:39:11   7Jul2020

   JOB DONE.