     Program PWSCF v.6.4.1 starts on  7Jul2020 at 12:44:39

     Waiting for input...
     Reading input from standard input

     Current dimensions of program PWSCF are:
     Max number of different atomic species (ntypx) = 10
     Max number of k-points (npk) =  40000
     Max angular momentum in pseudopotentials (lmaxx) =  3
     Message from routine volume:
     axis vectors are left-handed

     IMPORTANT: XC functional enforced from input :
     Exchange-correlation      = BLYP ( 1  3  1  3 0 0)
     Any further DFT definition will be discarded
     Please, verify this is what you really want

               file Si.pbe-n-kjpaw_psl.1.0.0.UPF: wavefunction(s)  3S 3P renormalized
               file O.pbe-n-kjpaw_psl.1.0.0.UPF: wavefunction(s)  2S 2P renormalized

     Subspace diagonalization in iterative solution of the eigenvalue problem:
     a serial algorithm will be used

     Message from routine setup:
     DEPRECATED: symmetry with ibrav=0, use correct ibrav instead

     bravais-lattice index     =            0
     lattice parameter (alat)  =       9.5140  a.u.
     unit-cell volume          =     608.9429 (a.u.)^3
     number of atoms/cell      =            6
     number of atomic types    =            2
     number of electrons       =        32.00
     number of Kohn-Sham states=           16
     kinetic-energy cutoff     =      50.0000  Ry
     charge density cutoff     =     600.0000  Ry
     convergence threshold     =      1.0E-06
     mixing beta               =       0.7000
     number of iterations used =            8  plain     mixing
     Exchange-correlation      = BLYP ( 1  3  1  3 0 0)

     celldm(1)=   9.514016  celldm(2)=   0.000000  celldm(3)=   0.000000
     celldm(4)=   0.000000  celldm(5)=   0.000000  celldm(6)=   0.000000

     crystal axes: (cart. coord. in units of alat)
               a(1) = (   0.707107   0.707107   0.000000 )
               a(2) = (   0.707107   0.000000   0.707107 )
               a(3) = (   0.000000   0.707107   0.707107 )

     reciprocal axes: (cart. coord. in units 2 pi/alat)
               b(1) = (  0.707107  0.707107 -0.707107 )
               b(2) = (  0.707107 -0.707107  0.707107 )
               b(3) = ( -0.707107  0.707107  0.707107 )

     PseudoPot. # 1 for Si read from file:
     ./Si.pbe-n-kjpaw_psl.1.0.0.UPF
     MD5 check sum: c39c59da582df4a0d9f10159256ea34e
     Pseudo is Projector augmented-wave + core cor, Zval =  4.0
     Generated using "atomic" code by A. Dal Corso v.6.3
     Shape of augmentation charge: PSQ
     Using radial grid of 1141 points,  6 beta functions with:
                l(1) =   0
                l(2) =   0
                l(3) =   1
                l(4) =   1
                l(5) =   2
                l(6) =   2
     Q(r) pseudized with 0 coefficients

     PseudoPot. # 2 for O  read from file:
     ./O.pbe-n-kjpaw_psl.1.0.0.UPF
     MD5 check sum: e99d9cef9b487d1ca56f5b95ecd0fd7a
     Pseudo is Projector augmented-wave + core cor, Zval =  6.0
     Generated using "atomic" code by A. Dal Corso v.6.3
     Shape of augmentation charge: PSQ
     Using radial grid of 1095 points,  4 beta functions with:
                l(1) =   0
                l(2) =   0
                l(3) =   1
                l(4) =   1
     Q(r) pseudized with 0 coefficients

     atomic species   valence    mass     pseudopotential
        Si             4.00    28.08500     Si( 1.00)
        O              6.00    15.99900     O ( 1.00)

     48 Sym. Ops., with inversion, found (24 have fractional translation)

   Cartesian axes

     site n.     atom                  positions (alat units)
         1           Si  tau(   1) = (   0.0000000   0.0000000   0.0000000  )
         2           Si  tau(   2) = (   0.3535534   0.3535534   0.3535534  )
         3           O   tau(   3) = (   0.1767767   0.1767767   0.1767767  )
         4           O   tau(   4) = (   0.1767767   0.5303301   0.5303301  )
         5           O   tau(   5) = (   0.5303301   0.5303301   0.1767767  )
         6           O   tau(   6) = (   0.5303301   0.1767767   0.5303301  )

     number of k points=     2
                       cart. coord. in units 2pi/alat
        k(    1) = (   0.1767767   0.1767767   0.1767767), wk =   0.5000000
        k(    2) = (   0.5303301  -0.1767767  -0.1767767), wk =   1.5000000

     Initial potential from superposition of free atoms

     starting charge   31.99888, renormalised to   32.00000
     Starting wfcs are   24 randomized atomic wfcs
     Checking if some PAW data can be deallocated...

     Self-consistent Calculation

     iteration #  1     ecut=    50.00 Ry     beta= 0.70
     Davidson diagonalization with overlap
     ethr =  1.00E-02,  avg # of iterations =  3.0

     total energy              =    -260.91447520 Ry
     Harris-Foulkes estimate   =    -262.46964929 Ry
     estimated scf accuracy    <       2.09754790 Ry

[...]

     total energy              =    -261.82224369 Ry
     Harris-Foulkes estimate   =    -261.82224458 Ry
     estimated scf accuracy    <       0.00000133 Ry

     iteration # 29     ecut=    50.00 Ry     beta= 0.70
     Davidson diagonalization with overlap
     ethr =  3.54E-09,  avg # of iterations =  4.0

     End of self-consistent calculation

          k = 0.1768 0.1768 0.1768 (  3647 PWs)   bands (ev):

   -18.4545 -16.6555 -16.3130 -16.3130  -8.5169  -5.1238  -4.8054  -4.8054
    -1.5442  -1.5396  -1.5396  -0.9539  -0.9539   0.8217   0.8217   1.3619

          k = 0.5303-0.1768-0.1768 (  3637 PWs)   bands (ev):

   -18.0368 -17.2549 -16.3351 -16.3292  -7.4848  -5.9007  -4.4904  -4.4388
    -2.0652  -1.7051  -1.4279  -0.8545  -0.7542   0.1337   0.2321   0.9532

     highest occupied level (ev):     1.3619

!    total energy              =    -261.82224401 Ry
     Harris-Foulkes estimate   =    -261.82224420 Ry
     estimated scf accuracy    <       0.00000025 Ry

     total all-electron energy =     -1763.901535 Ry

     The total energy is the sum of the following terms:

     one-electron contribution =    -111.64767872 Ry
     hartree contribution      =      72.37149087 Ry
     xc contribution           =     -43.47938875 Ry
     ewald contribution        =     -68.22902637 Ry
     one-center paw contrib.   =    -110.83764103 Ry

     convergence has been achieved in  29 iterations

     Writing output data file qb.save/

     General routines

     Parallel routines

   This run was terminated on:  12:45:50   7Jul2020

   JOB DONE.