     Program PWSCF v.6.4.1 starts on  7Jul2020 at 12:33:21

     Waiting for input...
     Reading input from standard input

     Current dimensions of program PWSCF are:
     Max number of different atomic species (ntypx) = 10
     Max number of k-points (npk) =  40000
     Max angular momentum in pseudopotentials (lmaxx) =  3
     Message from routine volume:
     axis vectors are left-handed

     IMPORTANT: XC functional enforced from input :
     Exchange-correlation      = PZ ( 1  1  0  0 0 0)
     Any further DFT definition will be discarded
     Please, verify this is what you really want

               file Si.pbe-n-kjpaw_psl.1.0.0.UPF: wavefunction(s)  3S 3P renormalized
               file O.pbe-n-kjpaw_psl.1.0.0.UPF: wavefunction(s)  2S 2P renormalized

     Subspace diagonalization in iterative solution of the eigenvalue problem:
     a serial algorithm will be used

     Message from routine setup:
     DEPRECATED: symmetry with ibrav=0, use correct ibrav instead

     bravais-lattice index     =            0
     lattice parameter (alat)  =       9.5140  a.u.
     unit-cell volume          =     608.9429 (a.u.)^3
     number of atoms/cell      =            6
     number of atomic types    =            2
     number of electrons       =        32.00
     number of Kohn-Sham states=           16
     kinetic-energy cutoff     =      50.0000  Ry
     charge density cutoff     =     600.0000  Ry
     convergence threshold     =      1.0E-06
     mixing beta               =       0.7000
     number of iterations used =            8  plain     mixing
     Exchange-correlation      = PZ ( 1  1  0  0 0 0)

     celldm(1)=   9.514016  celldm(2)=   0.000000  celldm(3)=   0.000000
     celldm(4)=   0.000000  celldm(5)=   0.000000  celldm(6)=   0.000000

     crystal axes: (cart. coord. in units of alat)
               a(1) = (   0.707107   0.707107   0.000000 )
               a(2) = (   0.707107   0.000000   0.707107 )
               a(3) = (   0.000000   0.707107   0.707107 )

     reciprocal axes: (cart. coord. in units 2 pi/alat)
               b(1) = (  0.707107  0.707107 -0.707107 )
               b(2) = (  0.707107 -0.707107  0.707107 )
               b(3) = ( -0.707107  0.707107  0.707107 )

     PseudoPot. # 1 for Si read from file:
     ./Si.pbe-n-kjpaw_psl.1.0.0.UPF
     MD5 check sum: c39c59da582df4a0d9f10159256ea34e
     Pseudo is Projector augmented-wave + core cor, Zval =  4.0
     Generated using "atomic" code by A. Dal Corso v.6.3
     Shape of augmentation charge: PSQ
     Using radial grid of 1141 points,  6 beta functions with:
                l(1) =   0
                l(2) =   0
                l(3) =   1
                l(4) =   1
                l(5) =   2
                l(6) =   2
     Q(r) pseudized with 0 coefficients

     PseudoPot. # 2 for O  read from file:
     ./O.pbe-n-kjpaw_psl.1.0.0.UPF
     MD5 check sum: e99d9cef9b487d1ca56f5b95ecd0fd7a
     Pseudo is Projector augmented-wave + core cor, Zval =  6.0
     Generated using "atomic" code by A. Dal Corso v.6.3
     Shape of augmentation charge: PSQ
     Using radial grid of 1095 points,  4 beta functions with:
                l(1) =   0
                l(2) =   0
                l(3) =   1
                l(4) =   1
     Q(r) pseudized with 0 coefficients

     atomic species   valence    mass     pseudopotential
        Si             4.00    28.08500     Si( 1.00)
        O              6.00    15.99900     O ( 1.00)

     48 Sym. Ops., with inversion, found (24 have fractional translation)

   Cartesian axes

     site n.     atom                  positions (alat units)
         1           Si  tau(   1) = (   0.0000000   0.0000000   0.0000000  )
         2           Si  tau(   2) = (   0.3535534   0.3535534   0.3535534  )
         3           O   tau(   3) = (   0.1767767   0.1767767   0.1767767  )
         4           O   tau(   4) = (   0.1767767   0.5303301   0.5303301  )
         5           O   tau(   5) = (   0.5303301   0.5303301   0.1767767  )
         6           O   tau(   6) = (   0.5303301   0.1767767   0.5303301  )

     number of k points=     2
                       cart. coord. in units 2pi/alat
        k(    1) = (   0.1767767   0.1767767   0.1767767), wk =   0.5000000
        k(    2) = (   0.5303301  -0.1767767  -0.1767767), wk =   1.5000000

     Initial potential from superposition of free atoms

     starting charge   31.99888, renormalised to   32.00000
     Starting wfcs are   24 randomized atomic wfcs
     Checking if some PAW data can be deallocated...

     Self-consistent Calculation

     iteration #  1     ecut=    50.00 Ry     beta= 0.70
     Davidson diagonalization with overlap
     ethr =  1.00E-02,  avg # of iterations =  3.0

     total energy              =    -252.38891728 Ry
     Harris-Foulkes estimate   =    -253.66813704 Ry
     estimated scf accuracy    <       1.72109593 Ry

[...]

     total energy              =    -253.13129233 Ry
     Harris-Foulkes estimate   =    -253.13130389 Ry
     estimated scf accuracy    <       0.00001795 Ry

     iteration # 17     ecut=    50.00 Ry     beta= 0.70
     Davidson diagonalization with overlap
     ethr =  5.61E-08,  avg # of iterations =  4.0

     End of self-consistent calculation

          k = 0.1768 0.1768 0.1768 (  3647 PWs)   bands (ev):

   -18.8710 -17.0066 -16.6433 -16.6433  -9.1926  -5.7647  -5.4511  -5.4511
    -2.1779  -2.1779  -2.1683  -1.5631  -1.5631   0.2354   0.2354   0.7947

          k = 0.5303-0.1768-0.1768 (  3637 PWs)   bands (ev):

   -18.4420 -17.6338 -16.6677 -16.6612  -8.1380  -6.5362  -5.1220  -5.0680
    -2.7144  -2.3440  -2.0617  -1.4743  -1.3790  -0.4673  -0.3708   0.3720

     highest occupied level (ev):     0.7947

!    total energy              =    -253.13129683 Ry
     Harris-Foulkes estimate   =    -253.13129747 Ry
     estimated scf accuracy    <       0.00000081 Ry

     total all-electron energy =     -1755.210588 Ry

     The total energy is the sum of the following terms:

     one-electron contribution =    -111.02507209 Ry
     hartree contribution      =      71.57515615 Ry
     xc contribution           =     -42.80746475 Ry
     ewald contribution        =     -68.22902637 Ry
     one-center paw contrib.   =    -102.64488975 Ry

     convergence has been achieved in  17 iterations

     Writing output data file qb.save/

     General routines

     Parallel routines

   This run was terminated on:  12:33:56   7Jul2020

   JOB DONE.