     Program PWSCF v.6.4.1 starts on  7Jul2020 at 12:50:10

     Waiting for input...
     Reading input from standard input

     Current dimensions of program PWSCF are:
     Max number of different atomic species (ntypx) = 10
     Max number of k-points (npk) =  40000
     Max angular momentum in pseudopotentials (lmaxx) =  3
     Message from routine volume:
     axis vectors are left-handed

     IMPORTANT: XC functional enforced from input :
     Exchange-correlation      = PW91 ( 1  4  2  2 0 0)
     Any further DFT definition will be discarded
     Please, verify this is what you really want

               file Si.pbe-n-kjpaw_psl.1.0.0.UPF: wavefunction(s)  3S 3P renormalized
               file O.pbe-n-kjpaw_psl.1.0.0.UPF: wavefunction(s)  2S 2P renormalized

     Subspace diagonalization in iterative solution of the eigenvalue problem:
     a serial algorithm will be used

     Message from routine setup:
     DEPRECATED: symmetry with ibrav=0, use correct ibrav instead

     bravais-lattice index     =            0
     lattice parameter (alat)  =       9.5140  a.u.
     unit-cell volume          =     608.9429 (a.u.)^3
     number of atoms/cell      =            6
     number of atomic types    =            2
     number of electrons       =        32.00
     number of Kohn-Sham states=           16
     kinetic-energy cutoff     =      50.0000  Ry
     charge density cutoff     =     600.0000  Ry
     convergence threshold     =      1.0E-06
     mixing beta               =       0.7000
     number of iterations used =            8  plain     mixing
     Exchange-correlation      = PW91 ( 1  4  2  2 0 0)

     celldm(1)=   9.514016  celldm(2)=   0.000000  celldm(3)=   0.000000
     celldm(4)=   0.000000  celldm(5)=   0.000000  celldm(6)=   0.000000

     crystal axes: (cart. coord. in units of alat)
               a(1) = (   0.707107   0.707107   0.000000 )
               a(2) = (   0.707107   0.000000   0.707107 )
               a(3) = (   0.000000   0.707107   0.707107 )

     reciprocal axes: (cart. coord. in units 2 pi/alat)
               b(1) = (  0.707107  0.707107 -0.707107 )
               b(2) = (  0.707107 -0.707107  0.707107 )
               b(3) = ( -0.707107  0.707107  0.707107 )

     PseudoPot. # 1 for Si read from file:
     ./Si.pbe-n-kjpaw_psl.1.0.0.UPF
     MD5 check sum: c39c59da582df4a0d9f10159256ea34e
     Pseudo is Projector augmented-wave + core cor, Zval =  4.0
     Generated using "atomic" code by A. Dal Corso v.6.3
     Shape of augmentation charge: PSQ
     Using radial grid of 1141 points,  6 beta functions with:
                l(1) =   0
                l(2) =   0
                l(3) =   1
                l(4) =   1
                l(5) =   2
                l(6) =   2
     Q(r) pseudized with 0 coefficients

     PseudoPot. # 2 for O  read from file:
     ./O.pbe-n-kjpaw_psl.1.0.0.UPF
     MD5 check sum: e99d9cef9b487d1ca56f5b95ecd0fd7a
     Pseudo is Projector augmented-wave + core cor, Zval =  6.0
     Generated using "atomic" code by A. Dal Corso v.6.3
     Shape of augmentation charge: PSQ
     Using radial grid of 1095 points,  4 beta functions with:
                l(1) =   0
                l(2) =   0
                l(3) =   1
                l(4) =   1
     Q(r) pseudized with 0 coefficients

     atomic species   valence    mass     pseudopotential
        Si             4.00    28.08500     Si( 1.00)
        O              6.00    15.99900     O ( 1.00)

     48 Sym. Ops., with inversion, found (24 have fractional translation)

   Cartesian axes

     site n.     atom                  positions (alat units)
         1           Si  tau(   1) = (   0.0000000   0.0000000   0.0000000  )
         2           Si  tau(   2) = (   0.3535534   0.3535534   0.3535534  )
         3           O   tau(   3) = (   0.1767767   0.1767767   0.1767767  )
         4           O   tau(   4) = (   0.1767767   0.5303301   0.5303301  )
         5           O   tau(   5) = (   0.5303301   0.5303301   0.1767767  )
         6           O   tau(   6) = (   0.5303301   0.1767767   0.5303301  )

     number of k points=     2
                       cart. coord. in units 2pi/alat
        k(    1) = (   0.1767767   0.1767767   0.1767767), wk =   0.5000000
        k(    2) = (   0.5303301  -0.1767767  -0.1767767), wk =   1.5000000

     Initial potential from superposition of free atoms

     starting charge   31.99888, renormalised to   32.00000
     Starting wfcs are   24 randomized atomic wfcs
     Checking if some PAW data can be deallocated...

     Self-consistent Calculation

     iteration #  1     ecut=    50.00 Ry     beta= 0.70
     Davidson diagonalization with overlap
     ethr =  1.00E-02,  avg # of iterations =  3.5

     total energy              =    -260.84386955 Ry
     Harris-Foulkes estimate   =    -262.23097799 Ry
     estimated scf accuracy    <       1.92150581 Ry

[...]

     total energy              =    -261.67073075 Ry
     Harris-Foulkes estimate   =    -261.67073094 Ry
     estimated scf accuracy    <       0.00000108 Ry

     iteration # 19     ecut=    50.00 Ry     beta= 0.70
     Davidson diagonalization with overlap
     ethr =  3.38E-09,  avg # of iterations =  2.5

     End of self-consistent calculation

          k = 0.1768 0.1768 0.1768 (  3647 PWs)   bands (ev):

   -18.8316 -17.0223 -16.6769 -16.6769  -8.8845  -5.4634  -5.1445  -5.1445
    -1.8722  -1.8722  -1.8650  -1.2699  -1.2699   0.4987   0.4987   1.0443

          k = 0.5303-0.1768-0.1768 (  3637 PWs)   bands (ev):

   -18.4122 -17.6260 -16.6990 -16.6931  -7.8432  -6.2453  -4.8232  -4.7701
    -2.3954  -2.0330  -1.7572  -1.1804  -1.0860  -0.1904  -0.0956   0.6317

     highest occupied level (ev):     1.0443

!    total energy              =    -261.67073035 Ry
     Harris-Foulkes estimate   =    -261.67073082 Ry
     estimated scf accuracy    <       0.00000071 Ry

     total all-electron energy =     -1763.750021 Ry

     The total energy is the sum of the following terms:

     one-electron contribution =    -111.53640861 Ry
     hartree contribution      =      72.20107826 Ry
     xc contribution           =     -43.88093329 Ry
     ewald contribution        =     -68.22902637 Ry
     one-center paw contrib.   =    -110.22544032 Ry

     convergence has been achieved in  19 iterations

     Writing output data file qb.save/

     General routines

     Parallel routines

   This run was terminated on:  12:50:59   7Jul2020

   JOB DONE.