     Program PWSCF v.6.4.1 starts on  7Jul2020 at 12:35:25

     Waiting for input...
     Reading input from standard input

     Current dimensions of program PWSCF are:
     Max number of different atomic species (ntypx) = 10
     Max number of k-points (npk) =  40000
     Max angular momentum in pseudopotentials (lmaxx) =  3

     IMPORTANT: XC functional enforced from input :
     Exchange-correlation      = PBE ( 1  4  3  4 0 0)
     Any further DFT definition will be discarded
     Please, verify this is what you really want

               file Si.pbe-n-kjpaw_psl.1.0.0.UPF: wavefunction(s)  3S 3P renormalized
               file O.pbe-n-kjpaw_psl.1.0.0.UPF: wavefunction(s)  2S 2P renormalized

     Subspace diagonalization in iterative solution of the eigenvalue problem:
     a serial algorithm will be used

     Message from routine setup:
     DEPRECATED: symmetry with ibrav=0, use correct ibrav instead

     bravais-lattice index     =            0
     lattice parameter (alat)  =       9.4732  a.u.
     unit-cell volume          =     803.3596 (a.u.)^3
     number of atoms/cell      =            9
     number of atomic types    =            2
     number of electrons       =        48.00
     number of Kohn-Sham states=           24
     kinetic-energy cutoff     =      50.0000  Ry
     charge density cutoff     =     600.0000  Ry
     convergence threshold     =      1.0E-06
     mixing beta               =       0.7000
     number of iterations used =            8  plain     mixing
     Exchange-correlation      = PBE ( 1  4  3  4 0 0)

     celldm(1)=   9.473197  celldm(2)=   0.000000  celldm(3)=   0.000000
     celldm(4)=   0.000000  celldm(5)=   0.000000  celldm(6)=   0.000000

     crystal axes: (cart. coord. in units of alat)
               a(1) = (   0.866025  -0.500000   0.000000 )
               a(2) = (   0.000000   1.000000   0.000000 )
               a(3) = (   0.000000   0.000000   1.091163 )

     reciprocal axes: (cart. coord. in units 2 pi/alat)
               b(1) = (  1.154701  0.000000  0.000000 )
               b(2) = (  0.577350  1.000000 -0.000000 )
               b(3) = ( -0.000000  0.000000  0.916453 )

     PseudoPot. # 1 for Si read from file:
     ./Si.pbe-n-kjpaw_psl.1.0.0.UPF
     MD5 check sum: c39c59da582df4a0d9f10159256ea34e
     Pseudo is Projector augmented-wave + core cor, Zval =  4.0
     Generated using "atomic" code by A. Dal Corso v.6.3
     Shape of augmentation charge: PSQ
     Using radial grid of 1141 points,  6 beta functions with:
                l(1) =   0
                l(2) =   0
                l(3) =   1
                l(4) =   1
                l(5) =   2
                l(6) =   2
     Q(r) pseudized with 0 coefficients

     PseudoPot. # 2 for O  read from file:
     ./O.pbe-n-kjpaw_psl.1.0.0.UPF
     MD5 check sum: e99d9cef9b487d1ca56f5b95ecd0fd7a
     Pseudo is Projector augmented-wave + core cor, Zval =  6.0
     Generated using "atomic" code by A. Dal Corso v.6.3
     Shape of augmentation charge: PSQ
     Using radial grid of 1095 points,  4 beta functions with:
                l(1) =   0
                l(2) =   0
                l(3) =   1
                l(4) =   1
     Q(r) pseudized with 0 coefficients

     atomic species   valence    mass     pseudopotential
        Si             4.00    28.08500     Si( 1.00)
        O              6.00    15.99900     O ( 1.00)

     12 Sym. Ops. (no inversion) found ( 8 have fractional translation)

   Cartesian axes

     site n.     atom                  positions (alat units)
         1           Si  tau(   1) = (   0.4330127   0.2500000   0.3637210  )
         2           Si  tau(   2) = (   0.0000000   0.5000000   0.7274420  )
         3           Si  tau(   3) = (   0.4330127  -0.2500000   0.0000000  )
         4           O   tau(   4) = (   0.1706070   0.7045000   0.9093025  )
         5           O   tau(   5) = (   0.5248114   0.5000000   0.1818605  )
         6           O   tau(   6) = (   0.3412140   0.0000000   0.1818605  )
         7           O   tau(   7) = (   0.6954184  -0.2045000   0.9093025  )
         8           O   tau(   8) = (   0.6954184   0.2045000   0.5455815  )
         9           O   tau(   9) = (   0.1706070   0.2955000   0.5455815  )

     number of k points=     2
                       cart. coord. in units 2pi/alat
        k(    1) = (   0.4330127   0.2500000   0.2291133), wk =   1.0000000
        k(    2) = (   0.1443376  -0.2500000   0.2291133), wk =   1.0000000

     Initial potential from superposition of free atoms

     starting charge   47.99831, renormalised to   48.00000
     Starting wfcs are   36 randomized atomic wfcs
     Checking if some PAW data can be deallocated...

     Self-consistent Calculation

     iteration #  1     ecut=    50.00 Ry     beta= 0.70
     Davidson diagonalization with overlap
     ethr =  1.00E-02,  avg # of iterations =  3.5

     total energy              =    -389.77255456 Ry
     Harris-Foulkes estimate   =    -391.64108764 Ry
     estimated scf accuracy    <       2.60624437 Ry

[...]

     total energy              =    -391.12397550 Ry
     Harris-Foulkes estimate   =    -391.12397646 Ry
     estimated scf accuracy    <       0.00000163 Ry

     iteration # 28     ecut=    50.00 Ry     beta= 0.70
     Davidson diagonalization with overlap
     ethr =  3.39E-09,  avg # of iterations =  3.0

     End of self-consistent calculation

          k = 0.4330 0.2500 0.2291 (  4788 PWs)   bands (ev):

   -16.7966 -16.3389 -15.8543 -15.2681 -15.1575 -15.1049  -6.3920  -5.1764
    -4.3463  -3.4354  -2.7900  -2.2930  -1.0623  -0.9340  -0.5885  -0.0723
     0.0832   0.3701   0.5679   0.8887   1.1415   1.3909   1.6517   1.9117

          k = 0.1443-0.2500 0.2291 (  4795 PWs)   bands (ev):

   -17.0072 -16.3367 -15.5492 -15.3112 -15.1266 -15.1069  -6.7367  -5.2364
    -3.8426  -3.6409  -2.8112  -2.3432  -0.9818  -0.8444  -0.3822  -0.2647
    -0.0129   0.3918   0.5584   0.6311   1.3255   1.4392   1.6908   2.0247

     highest occupied level (ev):     2.0247

!    total energy              =    -391.12397608 Ry
     Harris-Foulkes estimate   =    -391.12397677 Ry
     estimated scf accuracy    <       0.00000085 Ry

     total all-electron energy =     -2644.242912 Ry

     The total energy is the sum of the following terms:

     one-electron contribution =    -109.50087346 Ry
     hartree contribution      =      81.36347976 Ry
     xc contribution           =     -64.53443030 Ry
     ewald contribution        =    -134.30130761 Ry
     one-center paw contrib.   =    -164.15084448 Ry

     convergence has been achieved in  28 iterations

     Writing output data file qb.save/

     General routines

     Parallel routines

   This run was terminated on:  12:37: 5   7Jul2020

   JOB DONE.