     Program PWSCF v.6.4.1 starts on  7Jul2020 at 12:47:12

     Waiting for input...
     Reading input from standard input

     Current dimensions of program PWSCF are:
     Max number of different atomic species (ntypx) = 10
     Max number of k-points (npk) =  40000
     Max angular momentum in pseudopotentials (lmaxx) =  3

     IMPORTANT: XC functional enforced from input :
     Exchange-correlation      = PW91 ( 1  4  2  2 0 0)
     Any further DFT definition will be discarded
     Please, verify this is what you really want

               file Si.pbe-n-kjpaw_psl.1.0.0.UPF: wavefunction(s)  3S 3P renormalized
               file O.pbe-n-kjpaw_psl.1.0.0.UPF: wavefunction(s)  2S 2P renormalized

     Subspace diagonalization in iterative solution of the eigenvalue problem:
     a serial algorithm will be used

     Message from routine setup:
     DEPRECATED: symmetry with ibrav=0, use correct ibrav instead

     bravais-lattice index     =            0
     lattice parameter (alat)  =       9.4732  a.u.
     unit-cell volume          =     803.3596 (a.u.)^3
     number of atoms/cell      =            9
     number of atomic types    =            2
     number of electrons       =        48.00
     number of Kohn-Sham states=           24
     kinetic-energy cutoff     =      50.0000  Ry
     charge density cutoff     =     600.0000  Ry
     convergence threshold     =      1.0E-06
     mixing beta               =       0.7000
     number of iterations used =            8  plain     mixing
     Exchange-correlation      = PW91 ( 1  4  2  2 0 0)

     celldm(1)=   9.473197  celldm(2)=   0.000000  celldm(3)=   0.000000
     celldm(4)=   0.000000  celldm(5)=   0.000000  celldm(6)=   0.000000

     crystal axes: (cart. coord. in units of alat)
               a(1) = (   0.866025  -0.500000   0.000000 )
               a(2) = (   0.000000   1.000000   0.000000 )
               a(3) = (   0.000000   0.000000   1.091163 )

     reciprocal axes: (cart. coord. in units 2 pi/alat)
               b(1) = (  1.154701  0.000000  0.000000 )
               b(2) = (  0.577350  1.000000 -0.000000 )
               b(3) = ( -0.000000  0.000000  0.916453 )

     PseudoPot. # 1 for Si read from file:
     ./Si.pbe-n-kjpaw_psl.1.0.0.UPF
     MD5 check sum: c39c59da582df4a0d9f10159256ea34e
     Pseudo is Projector augmented-wave + core cor, Zval =  4.0
     Generated using "atomic" code by A. Dal Corso v.6.3
     Shape of augmentation charge: PSQ
     Using radial grid of 1141 points,  6 beta functions with:
                l(1) =   0
                l(2) =   0
                l(3) =   1
                l(4) =   1
                l(5) =   2
                l(6) =   2
     Q(r) pseudized with 0 coefficients

     PseudoPot. # 2 for O  read from file:
     ./O.pbe-n-kjpaw_psl.1.0.0.UPF
     MD5 check sum: e99d9cef9b487d1ca56f5b95ecd0fd7a
     Pseudo is Projector augmented-wave + core cor, Zval =  6.0
     Generated using "atomic" code by A. Dal Corso v.6.3
     Shape of augmentation charge: PSQ
     Using radial grid of 1095 points,  4 beta functions with:
                l(1) =   0
                l(2) =   0
                l(3) =   1
                l(4) =   1
     Q(r) pseudized with 0 coefficients

     atomic species   valence    mass     pseudopotential
        Si             4.00    28.08500     Si( 1.00)
        O              6.00    15.99900     O ( 1.00)

     12 Sym. Ops. (no inversion) found ( 8 have fractional translation)

   Cartesian axes

     site n.     atom                  positions (alat units)
         1           Si  tau(   1) = (   0.4330127   0.2500000   0.3637210  )
         2           Si  tau(   2) = (   0.0000000   0.5000000   0.7274420  )
         3           Si  tau(   3) = (   0.4330127  -0.2500000   0.0000000  )
         4           O   tau(   4) = (   0.1706070   0.7045000   0.9093025  )
         5           O   tau(   5) = (   0.5248114   0.5000000   0.1818605  )
         6           O   tau(   6) = (   0.3412140   0.0000000   0.1818605  )
         7           O   tau(   7) = (   0.6954184  -0.2045000   0.9093025  )
         8           O   tau(   8) = (   0.6954184   0.2045000   0.5455815  )
         9           O   tau(   9) = (   0.1706070   0.2955000   0.5455815  )

     number of k points=     2
                       cart. coord. in units 2pi/alat
        k(    1) = (   0.4330127   0.2500000   0.2291133), wk =   1.0000000
        k(    2) = (   0.1443376  -0.2500000   0.2291133), wk =   1.0000000

     Initial potential from superposition of free atoms

     starting charge   47.99831, renormalised to   48.00000
     Starting wfcs are   36 randomized atomic wfcs
     Checking if some PAW data can be deallocated...

     Self-consistent Calculation

     iteration #  1     ecut=    50.00 Ry     beta= 0.70
     Davidson diagonalization with overlap
     ethr =  1.00E-02,  avg # of iterations =  3.5

     total energy              =    -391.26409606 Ry
     Harris-Foulkes estimate   =    -393.21384524 Ry
     estimated scf accuracy    <       2.70486199 Ry

[...]

     total energy              =    -392.59213430 Ry
     Harris-Foulkes estimate   =    -392.59530131 Ry
     estimated scf accuracy    <       0.00644900 Ry

     iteration # 23     ecut=    50.00 Ry     beta= 0.70
     Davidson diagonalization with overlap
     ethr =  5.63E-07,  avg # of iterations =  4.0

     End of self-consistent calculation

          k = 0.4330 0.2500 0.2291 (  4788 PWs)   bands (ev):

   -16.8425 -16.3849 -15.9001 -15.3138 -15.2034 -15.1509  -6.4585  -5.2454
    -4.4173  -3.5090  -2.8640  -2.3693  -1.1295  -1.0010  -0.6571  -0.1430
     0.0125   0.2975   0.4955   0.8155   1.0682   1.3168   1.5768   1.8362

          k = 0.1443-0.2500 0.2291 (  4795 PWs)   bands (ev):

   -17.0530 -16.3827 -15.5951 -15.3567 -15.1726 -15.1529  -6.8026  -5.3053
    -3.9147  -3.7145  -2.8860  -2.4192  -1.0486  -0.9108  -0.4518  -0.3343
    -0.0828   0.3199   0.4848   0.5572   1.2520   1.3656   1.6156   1.9489

     highest occupied level (ev):     1.9489

!    total energy              =    -392.59332372 Ry
     Harris-Foulkes estimate   =    -392.59332377 Ry
     estimated scf accuracy    <       0.00000019 Ry

     total all-electron energy =     -2645.712260 Ry

     The total energy is the sum of the following terms:

     one-electron contribution =    -109.63666691 Ry
     hartree contribution      =      81.55562625 Ry
     xc contribution           =     -64.92578733 Ry
     ewald contribution        =    -134.30130761 Ry
     one-center paw contrib.   =    -165.28518813 Ry

     convergence has been achieved in  23 iterations

     Writing output data file qb.save/

     General routines

     Parallel routines

   This run was terminated on:  12:48:31   7Jul2020

   JOB DONE.