     Program PWSCF v.6.4.1 starts on  7Jul2020 at 12:12: 1

     R & G space division:  proc/nbgrp/npool/nimage =       6
     Waiting for input...
     Reading input from standard input

     Current dimensions of program PWSCF are:
     Max number of different atomic species (ntypx) = 10
     Max number of k-points (npk) =  40000
     Max angular momentum in pseudopotentials (lmaxx) =  3

     Subspace diagonalization in iterative solution of the eigenvalue problem:
     a serial algorithm will be used

     Message from routine setup:
     DEPRECATED: symmetry with ibrav=0, use correct ibrav instead

     bravais-lattice index     =            0
     lattice parameter (alat)  =       9.4732  a.u.
     unit-cell volume          =     803.3596 (a.u.)^3
     number of atoms/cell      =            9
     number of atomic types    =            2
     number of electrons       =        48.00
     number of Kohn-Sham states=           24
     kinetic-energy cutoff     =      50.0000  Ry
     charge density cutoff     =     600.0000  Ry
     convergence threshold     =      1.0E-06
     mixing beta               =       0.7000
     number of iterations used =            8  plain     mixing
     Exchange-correlation      = PBE ( 1  4  3  4 0 0)

     celldm(1)=   9.473197  celldm(2)=   0.000000  celldm(3)=   0.000000
     celldm(4)=   0.000000  celldm(5)=   0.000000  celldm(6)=   0.000000

     crystal axes: (cart. coord. in units of alat)
               a(1) = (   0.866025  -0.500000   0.000000 )
               a(2) = (   0.000000   1.000000   0.000000 )
               a(3) = (   0.000000   0.000000   1.091163 )

     reciprocal axes: (cart. coord. in units 2 pi/alat)
               b(1) = (  1.154701  0.000000  0.000000 )
               b(2) = (  0.577350  1.000000 -0.000000 )
               b(3) = ( -0.000000  0.000000  0.916453 )

     PseudoPot. # 1 for Si read from file:
     ./Si.pbe-n-rrkjus_psl.1.0.0.UPF
     MD5 check sum: fa25574f73a70a4139f2adfbefec430c
     Pseudo is Ultrasoft + core correction, Zval =  4.0
     Generated using "atomic" code by A. Dal Corso v.6.3
     Using radial grid of 1141 points,  6 beta functions with:
                l(1) =   0
                l(2) =   0
                l(3) =   1
                l(4) =   1
                l(5) =   2
                l(6) =   2
     Q(r) pseudized with 0 coefficients

     PseudoPot. # 2 for O  read from file:
     ./O.pbe-n-rrkjus_psl.1.0.0.UPF
     MD5 check sum: 91400c9766925bcf19f520983a725ff0
     Pseudo is Ultrasoft + core correction, Zval =  6.0
     Generated using "atomic" code by A. Dal Corso v.6.3MaX
     Using radial grid of 1095 points,  4 beta functions with:
                l(1) =   0
                l(2) =   0
                l(3) =   1
                l(4) =   1
     Q(r) pseudized with 0 coefficients

     atomic species   valence    mass     pseudopotential
        Si             4.00    28.08500     Si( 1.00)
        O              6.00    15.99900     O ( 1.00)

     12 Sym. Ops. (no inversion) found ( 8 have fractional translation)

   Cartesian axes

     site n.     atom                  positions (alat units)
         1           Si  tau(   1) = (   0.4330127   0.2500000   0.3637210  )
         2           Si  tau(   2) = (   0.0000000   0.5000000   0.7274420  )
         3           Si  tau(   3) = (   0.4330127  -0.2500000   0.0000000  )
         4           O   tau(   4) = (   0.1706070   0.7045000   0.9093025  )
         5           O   tau(   5) = (   0.5248114   0.5000000   0.1818605  )
         6           O   tau(   6) = (   0.3412140   0.0000000   0.1818605  )
         7           O   tau(   7) = (   0.6954184  -0.2045000   0.9093025  )
         8           O   tau(   8) = (   0.6954184   0.2045000   0.5455815  )
         9           O   tau(   9) = (   0.1706070   0.2955000   0.5455815  )

     number of k points=     2
                       cart. coord. in units 2pi/alat
        k(    1) = (   0.4330127   0.2500000   0.2291133), wk =   1.0000000
        k(    2) = (   0.1443376  -0.2500000   0.2291133), wk =   1.0000000

     Initial potential from superposition of free atoms

     starting charge   47.99831, renormalised to   48.00000
     Starting wfcs are   36 randomized atomic wfcs

     Self-consistent Calculation

     iteration #  1     ecut=    50.00 Ry     beta= 0.70
     Davidson diagonalization with overlap
     ethr =  1.00E-02,  avg # of iterations =  4.0

     total energy              =    -228.43253390 Ry
     Harris-Foulkes estimate   =    -230.25171189 Ry
     estimated scf accuracy    <       2.56023278 Ry

[...]

     total energy              =    -229.66412134 Ry
     Harris-Foulkes estimate   =    -229.66413972 Ry
     estimated scf accuracy    <       0.00003753 Ry

     iteration # 23     ecut=    50.00 Ry     beta= 0.70
     Davidson diagonalization with overlap
     ethr =  1.13E-08,  avg # of iterations =  3.0

     End of self-consistent calculation

          k = 0.4330 0.2500 0.2291 (  4788 PWs)   bands (ev):

   -16.7903 -16.3330 -15.8486 -15.2631 -15.1529 -15.1005  -6.3809  -5.1667
    -4.3378  -3.4286  -2.7840  -2.2875  -1.0577  -0.9290  -0.5860  -0.0700
     0.0860   0.3714   0.5697   0.8903   1.1430   1.3930   1.6531   1.9133

          k = 0.1443-0.2500 0.2291 (  4795 PWs)   bands (ev):

   -17.0009 -16.3308 -15.5440 -15.3059 -15.1221 -15.1025  -6.7253  -5.2266
    -3.8350  -3.6338  -2.8051  -2.3375  -0.9778  -0.8388  -0.3800  -0.2628
    -0.0095   0.3941   0.5600   0.6327   1.3269   1.4422   1.6914   2.0259

     highest occupied level (ev):     2.0259

!    total energy              =    -229.66412835 Ry
     Harris-Foulkes estimate   =    -229.66412844 Ry
     estimated scf accuracy    <       0.00000016 Ry

     The total energy is the sum of the following terms:

     one-electron contribution =    -112.22440471 Ry
     hartree contribution      =      81.40481630 Ry
     xc contribution           =     -64.54323233 Ry
     ewald contribution        =    -134.30130761 Ry

     convergence has been achieved in  23 iterations

     Writing output data file qb.save/

     General routines

     Parallel routines

   This run was terminated on:  12:12:30   7Jul2020

   JOB DONE.