     Program PWSCF v.6.4.1 starts on  7Jul2020 at  3:35: 3

     Waiting for input...
     Reading input from standard input

     Current dimensions of program PWSCF are:
     Max number of different atomic species (ntypx) = 10
     Max number of k-points (npk) =  40000
     Max angular momentum in pseudopotentials (lmaxx) =  3
               file Si.pbe-n-kjpaw_psl.1.0.0.UPF: wavefunction(s)  3S 3P renormalized
               file O.pbe-n-kjpaw_psl.1.0.0.UPF: wavefunction(s)  2S 2P renormalized

     Subspace diagonalization in iterative solution of the eigenvalue problem:
     a serial algorithm will be used

     Message from routine setup:
     DEPRECATED: symmetry with ibrav=0, use correct ibrav instead

     bravais-lattice index     =            0
     lattice parameter (alat)  =       9.2861  a.u.
     unit-cell volume          =     762.9105 (a.u.)^3
     number of atoms/cell      =            9
     number of atomic types    =            2
     number of electrons       =        48.00
     number of Kohn-Sham states=           24
     kinetic-energy cutoff     =      40.0000  Ry
     charge density cutoff     =     480.0000  Ry
     convergence threshold     =      1.0E-06
     mixing beta               =       0.7000
     number of iterations used =            8  plain     mixing
     Exchange-correlation      = SLA PW PBX PBC ( 1  4  3  4 0 0)

     celldm(1)=   9.286114  celldm(2)=   0.000000  celldm(3)=   0.000000
     celldm(4)=   0.000000  celldm(5)=   0.000000  celldm(6)=   0.000000

     crystal axes: (cart. coord. in units of alat)
               a(1) = (   0.866025  -0.500000   0.000000 )
               a(2) = (   0.000000   1.000000   0.000000 )
               a(3) = (   0.000000   0.000000   1.100122 )

     reciprocal axes: (cart. coord. in units 2 pi/alat)
               b(1) = (  1.154701  0.000000  0.000000 )
               b(2) = (  0.577350  1.000000 -0.000000 )
               b(3) = ( -0.000000  0.000000  0.908990 )

     PseudoPot. # 1 for Si read from file:
     ./Si.pbe-n-kjpaw_psl.1.0.0.UPF
     MD5 check sum: c39c59da582df4a0d9f10159256ea34e
     Pseudo is Projector augmented-wave + core cor, Zval =  4.0
     Generated using "atomic" code by A. Dal Corso v.6.3
     Shape of augmentation charge: PSQ
     Using radial grid of 1141 points,  6 beta functions with:
                l(1) =   0
                l(2) =   0
                l(3) =   1
                l(4) =   1
                l(5) =   2
                l(6) =   2
     Q(r) pseudized with 0 coefficients

     PseudoPot. # 2 for O  read from file:
     ./O.pbe-n-kjpaw_psl.1.0.0.UPF
     MD5 check sum: e99d9cef9b487d1ca56f5b95ecd0fd7a
     Pseudo is Projector augmented-wave + core cor, Zval =  6.0
     Generated using "atomic" code by A. Dal Corso v.6.3
     Shape of augmentation charge: PSQ
     Using radial grid of 1095 points,  4 beta functions with:
                l(1) =   0
                l(2) =   0
                l(3) =   1
                l(4) =   1
     Q(r) pseudized with 0 coefficients

     atomic species   valence    mass     pseudopotential
        Si             4.00    28.08500     Si( 1.00)
        O              6.00    15.99900     O ( 1.00)

      6 Sym. Ops. (no inversion) found ( 4 have fractional translation)

   Cartesian axes

     site n.     atom                  positions (alat units)
         1           Si  tau(   1) = (   0.4069453  -0.2349500   0.3667074  )
         2           Si  tau(   2) = (   0.4590801   0.2650500   0.0000000  )
         3           Si  tau(   3) = (   0.0000000   0.4699000   0.7334147  )
         4           O   tau(   4) = (   0.3576685   0.0603000   0.2354261  )
         5           O   tau(   5) = (   0.5083569   0.5603000   0.1312812  )
         6           O   tau(   6) = (   0.1266129   0.6601000   0.4979886  )
         7           O   tau(   7) = (   0.6349698  -0.2204000   0.6021335  )
         8           O   tau(   8) = (   0.7394125   0.1601000   0.9688409  )
         9           O   tau(   9) = (   0.2310556   0.2796000   0.8646960  )

     number of k points=     3
                       cart. coord. in units 2pi/alat
        k(    1) = (   0.4330127   0.2500000   0.2272475), wk =   1.0000000
        k(    2) = (   0.1443376  -0.2500000   0.2272475), wk =   0.5000000
        k(    3) = (  -0.1443376   0.2500000   0.2272475), wk =   0.5000000

     Initial potential from superposition of free atoms

     starting charge   47.99831, renormalised to   48.00000
     Starting wfcs are   36 randomized atomic wfcs
     Checking if some PAW data can be deallocated...

     Self-consistent Calculation

     iteration #  1     ecut=    40.00 Ry     beta= 0.70
     Davidson diagonalization with overlap
     ethr =  1.00E-02,  avg # of iterations =  2.0

     total energy              =    -389.98573763 Ry
     Harris-Foulkes estimate   =    -391.76402657 Ry
     estimated scf accuracy    <       2.49672813 Ry

[...]

     total energy              =    -391.12042365 Ry
     Harris-Foulkes estimate   =    -391.12042493 Ry
     estimated scf accuracy    <       0.00000298 Ry

     iteration # 21     ecut=    40.00 Ry     beta= 0.70
     Davidson diagonalization with overlap
     ethr =  6.21E-09,  avg # of iterations =  3.0

     End of self-consistent calculation

          k = 0.4330 0.2500 0.2272 (  3261 PWs)   bands (ev):

   -16.4085 -15.9470 -15.4089 -14.8136 -14.7958 -14.7503  -5.8109  -4.6980
    -3.8330  -2.8531  -2.5562  -2.2624  -0.6697  -0.3887  -0.1601   0.3026
     0.5501   0.7543   1.1222   1.3094   1.5441   1.8390   2.0934   2.3734

          k = 0.1443-0.2500 0.2272 (  3253 PWs)   bands (ev):

[...]

          k =-0.1443 0.2500 0.2272 (  3253 PWs)   bands (ev):

   -16.6487 -15.9277 -15.1664 -14.7886 -14.7477 -14.7433  -6.1872  -4.7498
    -3.4303  -2.9319  -2.6404  -2.3518  -0.6285  -0.1587  -0.1195   0.1170
     0.4868   1.0096   1.0813   1.2247   1.6581   1.7105   2.1320   2.4994

     highest occupied level (ev):     2.4994

!    total energy              =    -391.12042408 Ry
     Harris-Foulkes estimate   =    -391.12042418 Ry
     estimated scf accuracy    <       0.00000016 Ry

     total all-electron energy =     -2644.239360 Ry

     The total energy is the sum of the following terms:

     one-electron contribution =    -101.53627236 Ry
     hartree contribution      =      78.20934679 Ry
     xc contribution           =     -64.64833013 Ry
     ewald contribution        =    -138.99781517 Ry
     one-center paw contrib.   =    -164.14735322 Ry

     convergence has been achieved in  21 iterations

     Writing output data file qa.save/

     General routines

     Parallel routines

   This run was terminated on:   3:35:57   7Jul2020

   JOB DONE.