     Program PWSCF v.6.4.1 starts on  7Jul2020 at  3:53:59

     Waiting for input...
     Reading input from standard input

     Current dimensions of program PWSCF are:
     Max number of different atomic species (ntypx) = 10
     Max number of k-points (npk) =  40000
     Max angular momentum in pseudopotentials (lmaxx) =  3
               file Si.pbe-n-kjpaw_psl.1.0.0.UPF: wavefunction(s)  3S 3P renormalized
               file O.pbe-n-kjpaw_psl.1.0.0.UPF: wavefunction(s)  2S 2P renormalized

     Subspace diagonalization in iterative solution of the eigenvalue problem:
     a serial algorithm will be used

     Message from routine setup:
     DEPRECATED: symmetry with ibrav=0, use correct ibrav instead

     bravais-lattice index     =            0
     lattice parameter (alat)  =       9.2861  a.u.
     unit-cell volume          =     762.9105 (a.u.)^3
     number of atoms/cell      =            9
     number of atomic types    =            2
     number of electrons       =        48.00
     number of Kohn-Sham states=           24
     kinetic-energy cutoff     =      50.0000  Ry
     charge density cutoff     =     600.0000  Ry
     convergence threshold     =      1.0E-06
     mixing beta               =       0.7000
     number of iterations used =            8  plain     mixing
     Exchange-correlation      = SLA PW PBX PBC ( 1  4  3  4 0 0)

     celldm(1)=   9.286114  celldm(2)=   0.000000  celldm(3)=   0.000000
     celldm(4)=   0.000000  celldm(5)=   0.000000  celldm(6)=   0.000000

     crystal axes: (cart. coord. in units of alat)
               a(1) = (   0.866025  -0.500000   0.000000 )
               a(2) = (   0.000000   1.000000   0.000000 )
               a(3) = (   0.000000   0.000000   1.100122 )

     reciprocal axes: (cart. coord. in units 2 pi/alat)
               b(1) = (  1.154701  0.000000  0.000000 )
               b(2) = (  0.577350  1.000000 -0.000000 )
               b(3) = ( -0.000000  0.000000  0.908990 )

     PseudoPot. # 1 for Si read from file:
     ./Si.pbe-n-kjpaw_psl.1.0.0.UPF
     MD5 check sum: c39c59da582df4a0d9f10159256ea34e
     Pseudo is Projector augmented-wave + core cor, Zval =  4.0
     Generated using "atomic" code by A. Dal Corso v.6.3
     Shape of augmentation charge: PSQ
     Using radial grid of 1141 points,  6 beta functions with:
                l(1) =   0
                l(2) =   0
                l(3) =   1
                l(4) =   1
                l(5) =   2
                l(6) =   2
     Q(r) pseudized with 0 coefficients

     PseudoPot. # 2 for O  read from file:
     ./O.pbe-n-kjpaw_psl.1.0.0.UPF
     MD5 check sum: e99d9cef9b487d1ca56f5b95ecd0fd7a
     Pseudo is Projector augmented-wave + core cor, Zval =  6.0
     Generated using "atomic" code by A. Dal Corso v.6.3
     Shape of augmentation charge: PSQ
     Using radial grid of 1095 points,  4 beta functions with:
                l(1) =   0
                l(2) =   0
                l(3) =   1
                l(4) =   1
     Q(r) pseudized with 0 coefficients

     atomic species   valence    mass     pseudopotential
        Si             4.00    28.08500     Si( 1.00)
        O              6.00    15.99900     O ( 1.00)

      6 Sym. Ops. (no inversion) found ( 4 have fractional translation)

   Cartesian axes

     site n.     atom                  positions (alat units)
         1           Si  tau(   1) = (   0.4069453  -0.2349500   0.3667074  )
         2           Si  tau(   2) = (   0.4590801   0.2650500   0.0000000  )
         3           Si  tau(   3) = (   0.0000000   0.4699000   0.7334147  )
         4           O   tau(   4) = (   0.3576685   0.0603000   0.2354261  )
         5           O   tau(   5) = (   0.5083569   0.5603000   0.1312812  )
         6           O   tau(   6) = (   0.1266129   0.6601000   0.4979886  )
         7           O   tau(   7) = (   0.6349698  -0.2204000   0.6021335  )
         8           O   tau(   8) = (   0.7394125   0.1601000   0.9688409  )
         9           O   tau(   9) = (   0.2310556   0.2796000   0.8646960  )

     number of k points=    20
                       cart. coord. in units 2pi/alat
        k(    1) = (   0.2165064   0.1250000   0.1136238), wk =   0.1250000
        k(    2) = (   0.2165064   0.1250000   0.3408713), wk =   0.1250000
        k(    3) = (   0.3608439   0.3750000   0.1136238), wk =   0.1250000
        k(    4) = (   0.3608439   0.3750000   0.3408713), wk =   0.1250000
        k(    5) = (  -0.0721688  -0.3750000   0.1136238), wk =   0.1250000
        k(    6) = (  -0.0721688  -0.3750000   0.3408713), wk =   0.1250000
        k(    7) = (   0.0721688  -0.1250000   0.1136238), wk =   0.0625000
        k(    8) = (   0.0721688  -0.1250000   0.3408713), wk =   0.0625000
        k(    9) = (   0.6495191   0.3750000   0.1136238), wk =   0.1250000
        k(   10) = (   0.6495191   0.3750000   0.3408713), wk =   0.1250000
        k(   11) = (   0.2165064  -0.3750000   0.1136238), wk =   0.0625000
        k(   12) = (   0.2165064  -0.3750000   0.3408713), wk =   0.0625000
        k(   13) = (  -0.3608439  -0.3750000   0.1136238), wk =   0.1250000
        k(   14) = (  -0.3608439  -0.3750000   0.3408713), wk =   0.1250000
        k(   15) = (   0.0721688   0.3750000   0.1136238), wk =   0.1250000
        k(   16) = (   0.0721688   0.3750000   0.3408713), wk =   0.1250000
        k(   17) = (  -0.0721688   0.1250000   0.1136238), wk =   0.0625000
        k(   18) = (  -0.0721688   0.1250000   0.3408713), wk =   0.0625000
        k(   19) = (  -0.2165064   0.3750000   0.1136238), wk =   0.0625000
        k(   20) = (  -0.2165064   0.3750000   0.3408713), wk =   0.0625000

     Initial potential from superposition of free atoms

     starting charge   47.99831, renormalised to   48.00000
     Starting wfcs are   36 randomized atomic wfcs
     Checking if some PAW data can be deallocated...

     Self-consistent Calculation

     iteration #  1     ecut=    50.00 Ry     beta= 0.70
     Davidson diagonalization with overlap
     ethr =  1.00E-02,  avg # of iterations =  3.7

     total energy              =    -389.90886346 Ry
     Harris-Foulkes estimate   =    -391.69282799 Ry
     estimated scf accuracy    <       2.50944137 Ry

[...]

     total energy              =    -391.13849979 Ry
     Harris-Foulkes estimate   =    -391.13926558 Ry
     estimated scf accuracy    <       0.00156012 Ry

     iteration # 18     ecut=    50.00 Ry     beta= 0.70
     Davidson diagonalization with overlap
     ethr =  9.54E-08,  avg # of iterations =  4.0

     End of self-consistent calculation

          k = 0.2165 0.1250 0.1136 (  4582 PWs)   bands (ev):

   -16.7595 -15.7039 -15.2484 -14.7812 -14.7486 -14.7237  -6.0013  -5.1487
    -3.1684  -2.9036  -2.6984  -2.4622  -0.6123  -0.2914  -0.0925   0.2652
     0.5543   0.9876   1.0350   1.3007   1.6128   1.7294   2.1811   2.4329

[...]

          k =-0.0722-0.3750 0.1136 (  4558 PWs)   bands (ev):

[...]

          k = 0.0722 0.3750 0.3409 (  4552 PWs)   bands (ev):

[...]

          k =-0.2165 0.3750 0.3409 (  4558 PWs)   bands (ev):

   -16.4213 -16.0110 -15.3178 -14.8104 -14.7602 -14.7386  -5.9527  -4.6109
    -3.7765  -2.8691  -2.5299  -2.3460  -0.6665  -0.5488   0.0882   0.1930
     0.4560   1.0117   1.1556   1.3757   1.5673   1.7094   2.0200   2.4100

     highest occupied level (ev):     2.4857

!    total energy              =    -391.13879168 Ry
     Harris-Foulkes estimate   =    -391.13879150 Ry
     estimated scf accuracy    <       0.00000041 Ry

     total all-electron energy =     -2644.257728 Ry

     The total energy is the sum of the following terms:

     one-electron contribution =    -101.56382158 Ry
     hartree contribution      =      78.22693339 Ry
     xc contribution           =     -64.65110370 Ry
     ewald contribution        =    -138.99781517 Ry
     one-center paw contrib.   =    -164.15298462 Ry

     convergence has been achieved in  18 iterations

     Writing output data file qa.save/

     General routines

     Parallel routines

   This run was terminated on:   3:56:59   7Jul2020

   JOB DONE.